dates = {'2022-04-23','2022-04-24','2022-04-25','2022-04-26','2022-04-27','2022-04-28','2022-04-29','2022-04-30','2022-05-01','2022-05-02'};

daysOfWeek = [Saturday,Sunday,Monday,Tuesday,Wednesday,Thursday,Friday,Saturday,Sunday,Monday];

% For this week, how many people will be here.
numPeople = [91,91,91,91,91,40,40,40,40,40];

% Physical workers need 50 to 100 % more nutrients per day.
numPhysicalWorkers = [21.5,21.5,21.5,21.5,21.5,21.5,14.5,14.5,14.5,14.5];

% Males need +25% more nutrients per day.
numMen = [76,76,76,76,76,76,30,30,30,30];

% Num people who do not eat categories. contains = {none, meat, milk, gluten, egg, nut, seed, sugars}
numRefusals = [| 0,5,0,0,0,2,6,0 | 0,5,0,0,0,2,6,0 | 0,5,0,0,0,2,6,0 | 0,5,0,0,0,2,6,0 | 0,5,0,0,0,2,6,0 | 0,0,0,1,0,4,0,2 | 0,0,0,1,0,4,0,2 | 0,0,0,1,0,4,0,2 | 0,0,0,1,0,4,0,2 | 0,0,0,1,0,4,0,2 |];

